Cost:    1610.80
Running time:       0.01

Solution: 
0      6      3      1      2      4      7      0      
0     12      9     10     11      8     13      0      
0     17     18     16     22     20     15     19     14      0      
0     26     25     24     23     28     21     27      0      
0     34     29     30     73     33     32     31      0      
0     41     42     36     37     35     38     39     40      0      
0     51     44     49     43     47     48     45     46      0      
0     56     50     55     72     53     54     57     60     52      0      
0     63     64     61     62     68     59     65     58      0      
0     67     66      5     70     71     69     74     75      0      
